param set_len = 60;
param target_sum = 15373748;
param values := [1] 729881 [2] 470769 [3] 719210 [4] 407375 [5] 612208 [6] 78289 [7] 696498 [8] 673159 [9] 110381 [10] 984791 [11] 898818 [12] 154354 [13] 313071 [14] 156259 [15] 718259 [16] 667678 [17] 521149 [18] 959599 [19] 738082 [20] 333977 [21] 385404 [22] 652911 [23] 476484 [24] 730494 [25] 264816 [26] 376099 [27] 737096 [28] 347409 [29] 300970 [30] 171735 [31] 677858 [32] 19185 [33] 952415 [34] 176507 [35] 37851 [36] 419540 [37] 703515 [38] 909304 [39] 375523 [40] 905967 [41] 233665 [42] 48166 [43] 902704 [44] 439946 [45] 552128 [46] 612010 [47] 676712 [48] 792941 [49] 351450 [50] 249055 [51] 937004 [52] 300847 [53] 875703 [54] 1025208 [55] 708694 [56] 978338 [57] 237216 [58] 885371 [59] 173406 [60] 985534 ;
